PARAMETER_FILE = even/even_uncomplete_graph_new/seg/par/random72.par
PROBLEM_FILE = even/even_uncomplete_graph_new/seg/mat/random72.tsp
Successes/Runs = 0/10
Cost.min = 665, Cost.avg = 665.00, Cost.max = 665
Gap.min = 0.0000%, Gap.avg = 0.0000%, Gap.max = 0.0000%
Trials.min = 1000, Trials.avg = 1000.0, Trials.max = 1000
Time.min = 0.17 sec., Time.avg = 0.18 sec., Time.max = 0.20 sec.
Time.total = 1.90 sec.
请按任意键继续. . . 
